NAME : zqloutput/eax-hard-simple-rescaleandround/50-1.tsp
TYPE : TSP
DIMENSION : 50
EDGE_WEIGHT_TYPE : EUC_2D
NODE_COORD_SECTION
1 489998 353967
2 138462 642560
3 879248 399523
4 181460 709737
5 521533 356000
6 253195 756374
7 566378 342235
8 279204 629389
9 1589 130313
10 97211 801145
11 326558 750488
12 631854 950803
13 961348 29833
14 821390 332970
15 536605 488133
16 111744 101164
17 948415 803347
18 437818 784227
19 624442 146377
20 182274 181327
21 693138 627277
22 588375 700585
23 311067 446814
24 985242 125437
25 886555 439188
26 37923 594367
27 452852 113305
28 421292 550790
29 482216 229760
30 945605 904341
31 598834 349579
32 559778 788301
33 721362 200961
34 49609 778612
35 763421 140060
36 666314 171657
37 916947 88191
38 982407 265092
39 902855 625889
40 172035 627914
41 422772 616357
42 243277 970366
43 202417 723258
44 326066 735236
45 894233 755767
46 534173 961197
47 286765 816934
48 510947 212795
49 53522 857527
50 121034 726889
EOF
